language ESSENCE' 1.0

letting fixed be 
[
    [9,0,8,0,2,0,0,7,6],
    [6,0,0,0,0,7,1,0,0],
    [1,7,0,0,0,0,0,2,0],
    [0,0,5,4,0,0,0,9,1],
    [3,9,1,7,8,2,0,0,5],
    [4,6,0,0,0,5,8,3,0],
    [0,4,0,0,0,0,0,5,0],
    [5,0,6,0,0,0,0,1,0],
    [2,1,9,5,7,0,3,0,4]
]